This is Ipopt version 3.10.0, running with linear solver ma27.

Number of nonzeros in equality constraint Jacobian...:        0
Number of nonzeros in inequality constraint Jacobian.:       48
Number of nonzeros in Lagrangian Hessian.............:        0

Total number of variables............................:        6
                     variables with only lower bounds:        0
                variables with lower and upper bounds:        6
                     variables with only upper bounds:        0
Total number of equality constraints.................:        0
Total number of inequality constraints...............:        8
        inequality constraints with only lower bounds:        0
   inequality constraints with lower and upper bounds:        0
        inequality constraints with only upper bounds:        8

iter    objective    inf_pr   inf_du lg(mu)  ||d||  lg(rg) alpha_du alpha_pr  ls
   0  7.6646024e+00 2.36e+00 1.19e+00   0.0 0.00e+00    -  0.00e+00 0.00e+00   0
   1  9.2944542e+00 1.53e+00 1.04e+01  -0.5 1.52e+00    -  5.42e-01 4.85e-01f  1
   2  9.7022521e+00 7.28e-01 5.23e+00  -0.4 9.75e-01    -  9.63e-01 5.55e-01h  1
   3  1.1944420e+01 5.01e-01 1.74e+01  -0.4 1.02e+00    -  9.09e-01 5.35e-01h  1
   4  1.3858526e+01 1.66e-01 9.16e+00  -0.7 1.34e+00    -  6.68e-01 9.99e-01h  1
   5  1.4627395e+01 6.80e-02 3.29e+00  -1.2 6.43e-01    -  1.00e+00 6.63e-01h  1
   6  1.5077697e+01 4.46e-02 9.25e+00  -1.2 5.58e-01    -  8.98e-01 3.26e-01h  1
Exception of type: IpoptException in file "Unknown File" at line -1:
 Exception message: Unknown Exception caught in Ipopt
